# Solution for model p01_budget_0p830
# Objective value = 8.3000000000006313e-01
Risk 8.3000000000006313e-01
0 0
1 0
3 0.001
4 30.001
5 3.0002000000000002e+01
6 40.002
7 30.001
9 6.7071520108565181e+01
c(0,1)_Rl 0.001
c(0,1)_Ru 0
c(0,3)_Rl 0
c(0,3)_Ru 0
c(3,4)_Rl 0
c(3,4)_Ru 0
c(4,5)_Rl 0
c(4,5)_Ru 0
c(3,5)_Rl 0
c(3,5)_Ru 0
c(1,2)_l 0
c(1,2)_u 30
c(2,7)_Fl 0
c(2,7)_Fu 5.4361580748444238e-01
c(1,7)_Rl 0
c(1,7)_Ru 0
c(5,6)_Rl 0
c(5,6)_Ru 0
c(3,6)_Rl 0
c(3,6)_Ru 0
c(7,8)_l 0
c(7,8)_u 3.7069520108565179e+01
c(1,8)_Fl 0
c(1,8)_Fu 1.4319209625781038e-01
c(0,9)_Rl 0
c(0,9)_Ru 3.1070920108565183e+01
c(8,9)_Fl 0
c(8,9)_Fu 1.4319209625781038e-01
c(6,9)_Rl 0
c(6,9)_Ru 0
Cost 3.1071920108565184e+01
